c This is UnifRandomKSATGenerator
c uniform random 3-SAT generated instance with: 
c clause length: 3 
c number variables: 20 
c number clauses: 85 
c clause to variable ratio: 4.27 
c random number generator name: SHA1PRNG 
c random number generator provider: SUN 
c random number generator seed: 8787882086818111419 
p cnf 20 85
1 20 -14 0
8 -18 -15 0
17 5 15 0
18 3 -5 0
-18 -20 -16 0
-17 9 4 0
-2 -20 7 0
19 -12 14 0
-18 -4 -20 0
1 -15 -8 0
4 -5 6 0
16 18 -3 0
-19 6 -16 0
-18 9 -14 0
8 -10 -12 0
-10 -6 13 0
-10 -20 19 0
16 18 13 0
-10 20 -6 0
-9 -20 3 0
1 -19 15 0
9 1 -7 0
9 -7 -15 0
17 -3 -13 0
17 19 5 0
3 20 13 0
-20 -14 -16 0
8 -18 4 0
8 12 -16 0
2 5 -7 0
-13 6 15 0
-20 6 -16 0
8 -12 -14 0
9 -4 -6 0
16 14 7 0
16 -12 -8 0
1 2 13 0
19 20 -15 0
-19 18 11 0
-5 12 7 0
16 -10 5 0
16 -12 -7 0
-1 -2 -18 0
-12 20 -7 0
17 -19 12 0
-10 -12 -15 0
-11 4 6 0
8 -2 -18 0
-9 16 18 0
4 -6 -16 0
-12 4 -6 0
-10 -2 9 0
-4 13 -15 0
-17 9 10 0
-17 18 -16 0
-17 1 5 0
-9 -6 -14 0
-9 -18 3 0
-17 5 -7 0
10 5 -7 0
-17 3 -15 0
3 -4 12 0
-2 19 7 0
17 -20 -13 0
18 -12 -5 0
-3 -20 -4 0
-17 10 11 0
-9 20 -7 0
8 10 -14 0
-3 -12 -20 0
1 -2 -11 0
-17 -3 -14 0
-4 -12 6 0
-3 20 14 0
-9 -6 7 0
-10 -11 7 0
8 2 14 0
8 12 20 0
-1 4 -15 0
-3 5 -16 0
-10 9 12 0
-9 11 14 0
1 12 -14 0
9 -10 17 0
-1 11 12 0
